Minimize
  - 33 y_0 - 47 y_1 - 49 y_2 - 68 y_3 - 101 y_4 - 55 y_5 - 37 y_6 - 15 y_7
   - 99 y_8 + 45 x_0_2 + 51 x_0_3 + 23 x_0_5 + 15 x_0_6 + 20 x_0_7
   + 33 x_0_9 + 3 x_1_2 + 25 x_1_3 + 56 x_1_4 + 58 x_1_5 + 56 x_1_6
   + 47 x_1_9 + 55 x_2_4 + 61 x_2_5 + 58 x_3_5 + 32 x_3_8 + 68 x_3_9
   + 95 x_4_6 + 15 x_4_8 + 21 x_5_6 + 40 x_5_7 + 55 x_5_9 + 99 x_8_9
   + 504 Constant
Subject To
 c_0: y_4 = 1
 c_1_0: y_0 >= 1
 c_1_1: y_1 >= 1
 c_1_2: y_2 >= 1
 c_1_3: y_3 >= 1
 c_1_4: y_4 >= 1
 c_1_5: y_5 >= 1
 c_1_6: y_6 >= 1
 c_1_7: y_7 >= 1
 c_1_8: y_8 >= 1
 c_1_9: y_9 >= 1
 c_2_0: - 2 y_0 + x_0_2 + x_0_3 + x_0_5 + x_0_6 + x_0_7 + x_0_9 = 0
 c_2_1: - 2 y_1 + x_1_2 + x_1_3 + x_1_4 + x_1_5 + x_1_6 + x_1_9 = 0
 c_2_2: - 2 y_2 + x_0_2 + x_1_2 + x_2_4 + x_2_5 = 0
 c_2_3: - 2 y_3 + x_0_3 + x_1_3 + x_3_5 + x_3_8 + x_3_9 = 0
 c_2_4: - 2 y_4 + x_1_4 + x_2_4 + x_4_6 + x_4_8 = 0
 c_2_5: - 2 y_5 + x_0_5 + x_1_5 + x_2_5 + x_3_5 + x_5_6 + x_5_7 + x_5_9
   = 0
 c_2_6: - 2 y_6 + x_0_6 + x_1_6 + x_4_6 + x_5_6 = 0
 c_2_7: - 2 y_7 + x_0_7 + x_5_7 = 0
 c_2_8: - 2 y_8 + x_3_8 + x_4_8 + x_8_9 = 0
 c_2_9: - 2 y_9 + x_0_9 + x_1_9 + x_3_9 + x_5_9 + x_8_9 = 0
Bounds
 Constant = 1
Binaries
 y_0 y_1 y_2 y_3 y_4 y_5 y_6 y_7 y_8 y_9 x_0_2 x_0_3 x_0_5 x_0_6 x_0_7
 x_0_9 x_1_2 x_1_3 x_1_4 x_1_5 x_1_6 x_1_9 x_2_4 x_2_5 x_3_5 x_3_8 x_3_9
 x_4_6 x_4_8 x_5_6 x_5_7 x_5_9 x_8_9
End
